(set-logic ALL)
(declare-const GEN2 Int)
(declare-const GEN1 Int)
(set-info :smt-lib-version 2.0)
(declare-fun f (Int) Bool)
(assert (f GEN1))
(push 1)
(assert (not (f GEN2)))
(pop 1)
(check-sat)
(get-model)